(declare-const |x':50| Int)
(declare-const |havoc:0| Int)
(declare-const |K:55| Int)
(assert (and (<= (- |havoc:0|) 0)
               (or (not (<= (- |K:55|) 0))
                     (= (+ |x':50| (* 25 (* (mod |havoc:0| 2) |K:55|))
                             (* -20 |K:55|)) 0))
               (or (not (<= (- |K:55|) 0)) (<= (+ |x':50| (* -20 |K:55|)) 0))
               (or (not (<= (- |K:55|) 0))
                     (<= (+ (- |x':50|) (* -5 |K:55|)) 0))
               (or (and (= |K:55| 0) (= (- |x':50|) 0))
                     (and (<= (+ (- |K:55|) 1) 0)
                            (<= (+ (mod |havoc:0| 2) -1) 0)
                            (<= (- (mod |havoc:0| 2)) 0) (<= (- |havoc:0|) 0)
                            (<= (+ (* 25 (mod |havoc:0| 2)) |x':50| -118) 0)
                            (<= (+ (mod |havoc:0| 2) -1) 0)
                            (<= (- (mod |havoc:0| 2)) 0) (<= (- |havoc:0|) 0)))
               (<= (- |K:55|) 0) (<= (- |havoc:0|) 0)
               (<= (+ (- |x':50|) 99) 0)
               (not (= (+ (mod |x':50| 2) (- (mod |havoc:0| 2))) 0))))
(check-sat)
